c --- [ banner ] -------------------------------------------------------------
c 
c CaDiCaL Radically Simplified CDCL SAT Solver
c Copyright (c) 2016-2021 A. Biere, M. Fleury, N. Froleyks
c 
c Version 1.5.2 a5f15211db36c3956764e18194dd5bd63bf3b5e6
c g++ (GCC) 9.3.0 -Wall -Wextra -O3 -DNDEBUG
c Fri Oct 21 01:27:37 EDT 2022 Linux gra-login3 3.10.0-1160.66.1.el7.x86_64 x86_64
c 
c --- [ limit ] --------------------------------------------------------------
c 
c setting conflict limit to 200000 conflicts (due to '200000')
c 
c --- [ parsing input ] ------------------------------------------------------
c 
c reading DIMACS file from '33.cubes507.adj'
c opening file to read '33.cubes507.adj'
c found 'p cnf 6160 1595475' header
c parsed 1595475 clauses in 16.92 seconds process time
c closing file '33.cubes507.adj'
c after reading 1457566778 bytes 1390.0 MB
c 
c --- [ options ] ------------------------------------------------------------
c 
c all options are set to their default value
c 
c --- [ solving ] ------------------------------------------------------------
c 
c time measured in process time since initialization
c 
c  seconds    reductions  redundant   irredundant
c          MB     restarts       trail       variables
c            level   conflicts       glue         remaining
c 
c * 16.92 1357  0 0   0    0    0  0% 0 1595422 2429 39%
c { 17.64 1398  0 0   0    0    0  0% 0 1595422 2429 39%
c i 17.65 1398 1191 0   0    1    0 29% 0 1595422 2402 39%
c i 18.61 1427 1499 0   1   29   25 42% 5 1595422 2391 39%
c i 19.14 1442 1142 0   3   38   33 39% 12 1595422 2390 39%
c i 20.54 1471 666 0  11   67   57 34% 23 1595422 2389 39%
c i 20.61 1471 639 0  12   70   59 34% 23 1595422 2388 39%
c i 21.06 1475 557 0  13   83   69 33% 22 1595422 2387 39%
c i 21.18 1475 544 0  13   85   70 33% 21 1595422 2386 39%
c i 21.40 1476 476 0  14   98   82 32% 23 1595422 2385 39%
c i 21.57 1476 427 0  14  111   89 31% 21 1595422 2379 39%
c i 22.27 1484 378 0  14  133  110 31% 21 1595422 2378 39%
c i 22.61 1484 304 0  15  173  137 28% 21 1595422 2377 39%
c i 22.64 1484 296 0  15  179  142 28% 21 1595422 2376 39%
c i 22.68 1484 295 0  15  180  142 28% 21 1595422 2375 39%
c i 22.93 1486 286 0  15  192  151 28% 22 1595422 2374 39%
c i 23.17 1486 284 0  17  199  157 28% 26 1595422 2373 39%
c i 23.36 1488 269 0  21  214  169 27% 25 1595422 2372 39%
c i 23.67 1489 269 0  23  225  178 27% 28 1595422 2370 38%
c i 23.77 1489 265 0  25  235  184 27% 28 1595422 2367 38%
c 
c  seconds     reductions  redundant    irredundant
c          MB      restarts       trail        variables
c             level   conflicts       glue          remaining
c 
c i 24.25 1494 256 0  32  269  212 27% 28 1595422 2366 38%
c i 24.69 1494 240 0  35  299  232 26% 27 1595422 2365 38%
c - 28.32 1457 239 1  36  302  235 26% 28 468984 2365 38%
c i 29.12 1372 221 1  44  333  265 27% 29 468984 2364 38%
c i 29.23 1372 217 1  46  340  271 27% 29 468984 2363 38%
c i 29.28 1372 214 1  46  346  276 27% 29 468984 2362 38%
c i 29.34 1372 213 1  47  348  277 27% 29 468984 2361 38%
c i 29.50 1372 205 1  50  371  295 27% 29 468984 2360 38%
c i 29.52 1372 202 1  52  377  299 27% 29 468984 2359 38%
c i 29.63 1372 191 1  53  403  321 27% 29 468984 2358 38%
c i 29.65 1372 189 1  53  409  325 27% 29 468984 2357 38%
c i 29.87 1372 185 1  54  430  342 27% 29 468984 2356 38%
c i 29.87 1372 184 1  54  432  343 27% 29 468984 2355 38%
c i 29.99 1372 178 1  56  451  361 27% 29 468984 2354 38%
c i 30.02 1373 178 1  56  465  361 27% 28 468984 2340 38%
c i 30.37 1373 174 1  61  491  382 27% 30 468984 2339 38%
c i 30.39 1373 174 1  62  492  382 27% 30 468984 2338 38%
c i 30.58 1373 172 1  64  505  390 27% 30 468984 2337 38%
c i 30.95 1373 168 1  64  524  408 27% 29 468984 2336 38%
c i 31.07 1373 167 1  64  532  414 27% 29 468984 2335 38%
c 
c  seconds     reductions  redundant   irredundant
c          MB      restarts       trail       variables
c             level   conflicts       glue         remaining
c 
c i 31.07 1373 167 1  64  533  414 27% 29 468984 2334 38%
c i 31.10 1373 166 1  64  536  416 27% 29 468984 2333 38%
c i 31.27 1373 165 1  64  545  424 27% 29 468984 2332 38%
c i 31.30 1373 163 1  64  550  428 27% 28 468984 2331 38%
c i 31.31 1373 163 1  64  551  428 27% 28 468984 2330 38%
c i 31.31 1373 162 1  64  553  429 27% 28 468984 2329 38%
c i 31.33 1373 162 1  64  556  431 27% 28 468984 2328 38%
c i 31.34 1373 161 1  64  558  432 27% 28 468984 2327 38%
c i 31.43 1373 160 1  64  561  434 27% 28 468984 2326 38%
c i 31.59 1374 158 1  64  568  439 27% 28 468984 2325 38%
c i 32.01 1374 149 1  64  615  471 27% 27 468984 2324 38%
c i 32.17 1374 148 1  64  623  478 27% 27 468984 2323 38%
c i 32.23 1374 145 1  64  641  491 27% 26 468984 2322 38%
c i 32.35 1374 135 1  64  702  538 27% 26 468984 2321 38%
c i 32.37 1374 133 1  64  711  546 27% 26 468984 2320 38%
c i 32.39 1374 132 1  64  720  552 27% 26 468984 2318 38%
c i 32.42 1374 129 1  64  748  573 27% 26 468984 2317 38%
c i 32.43 1374 126 1  64  764  585 27% 26 468984 2316 38%
c i 32.53 1374 126 1  64  769  587 27% 26 468984 2315 38%
c i 32.56 1374 126 1  64  779  595 27% 26 468984 2314 38%
c 
c  seconds     reductions  redundant   irredundant
c          MB      restarts       trail       variables
c             level   conflicts       glue         remaining
c 
c i 32.97 1374 125 1  69  800  613 27% 27 468984 2313 38%
c i 32.99 1374 125 1  70  802  614 27% 27 468984 2312 38%
c i 32.99 1374 125 1  70  803  614 27% 27 468984 2311 38%
c i 32.99 1374 125 1  70  804  614 27% 27 468984 2310 38%
c i 32.99 1374 125 1  71  805  614 27% 27 468984 2309 37%
c i 33.10 1374 124 1  73  815  622 27% 27 468984 2308 37%
c i 33.21 1374 123 1  75  822  626 27% 27 468984 2307 37%
c i 33.34 1374 122 1  78  835  637 27% 27 468984 2306 37%
c i 33.36 1374 121 1  79  840  640 27% 27 468984 2305 37%
c i 33.36 1374 121 1  79  841  640 27% 27 468984 2304 37%
c i 33.36 1374 121 1  79  842  640 27% 27 468984 2303 37%
c i 33.36 1374 121 1  79  843  640 27% 27 468984 2302 37%
c i 33.44 1374 120 1  79  857  650 27% 27 468984 2301 37%
c i 33.66 1374 117 1  81  879  666 27% 27 468984 2300 37%
c i 33.70 1374 116 1  81  889  673 27% 27 468984 2299 37%
c i 33.70 1374 116 1  81  890  673 27% 27 468984 2298 37%
c i 33.75 1374 115 1  81  904  683 27% 27 468984 2297 37%
c i 33.78 1375 114 1  81  906  684 27% 27 468984 2296 37%
c i 33.81 1375 113 1  81  922  695 27% 27 468984 2295 37%
c i 33.85 1375 112 1  81  928  700 27% 27 468984 2294 37%
c 
c  seconds     reductions  redundant   irredundant
c          MB      restarts       trail       variables
c             level   conflicts       glue         remaining
c 
c i 33.85 1375 112 1  81  930  701 27% 27 468984 2293 37%
c i 33.85 1375 112 1  81  931  701 27% 27 468984 2292 37%
c i 33.86 1375 112 1  81  932  701 27% 27 468984 2291 37%
c i 33.88 1375 111 1  81  940  708 27% 26 468984 2290 37%
c i 33.96 1375 110 1  81  957  722 27% 27 468984 2289 37%
c i 33.96 1375 110 1  81  958  722 27% 27 468984 2288 37%
c i 33.98 1375 110 1  81  962  725 27% 27 468984 2287 37%
c i 34.00 1375 109 1  81  967  729 28% 27 468984 2286 37%
c i 34.00 1375 109 1  81  968  729 28% 27 468984 2285 37%
c i 34.02 1375 108 1  81  984  739 28% 27 468984 2284 37%
c } 34.08 1375 107 1  81 1001  756 28% 27 468984 2284 37%
c [ 34.08 1375  0 1  81 1001  756  0% 0 468984 2284 37%
c O 34.08 1375  1 1  81 1002  756 13% 0 468984 2284 37%
c i 34.08 1375  1 1  81 1002  756 13% 0 468984 2273 37%
c i 34.43 1375 23 1  81 1031  777 25% 11 468984 2272 37%
c i 34.47 1375 24 1  81 1034  779 25% 13 468984 2271 37%
c i 34.52 1375 30 1  81 1046  790 26% 20 468984 2270 37%
c i 34.54 1375 34 1  81 1056  796 27% 25 468984 2269 37%
c i 34.58 1375 33 1  81 1064  803 27% 23 468984 2268 37%
c i 34.58 1375 33 1  81 1065  803 27% 23 468984 2267 37%
c 
c  seconds    reductions  redundant   irredundant
c          MB     restarts       trail       variables
c            level   conflicts       glue         remaining
c 
c i 34.58 1375 32 1  81 1066  803 27% 23 468984 2266 37%
c i 34.61 1375 33 1  81 1069  805 27% 23 468984 2265 37%
c i 34.71 1375 38 1  81 1088  822 28% 28 468984 2264 37%
c i 34.78 1375 39 1  81 1101  831 28% 28 468984 2263 37%
c i 34.78 1375 38 1  81 1102  831 28% 28 468984 2262 37%
c i 34.81 1375 37 1  81 1112  839 28% 27 468984 2261 37%
c i 34.83 1375 37 1  81 1119  844 28% 27 468984 2260 37%
c i 34.93 1375 36 1  81 1151  870 29% 27 468984 2259 37%
c i 34.97 1375 35 1  81 1162  876 29% 27 468984 2258 37%
c i 34.97 1375 35 1  81 1163  876 29% 26 468984 2257 37%
c i 34.97 1375 35 1  81 1164  876 29% 26 468984 2256 37%
c - 36.11 1554 33 2  81 1305  894 31% 26 468465 2256 37%
c i 36.35 1554 32 2  81 1344  923 31% 26 468465 2255 37%
c i 36.35 1554 32 2  81 1345  923 31% 26 468465 2254 37%
c i 36.36 1554 32 2  81 1357  930 31% 26 468465 2253 37%
c ] 36.54 1554 32 2  81 1457 1021 31% 26 468465 2253 37%
c 1 36.55 1554 32 2  81 1457 1021 31% 26 468465 2253 37%
c 
c --- [ writing output ] -----------------------------------------------------
c 
c writing simplified CNF to DIMACS file 'simp/33.cubes507.adj.simp1'
c * 36.55 1554 32 2  81 1457 1021 31% 26 468465 2253 37%
c opening file to write 'simp/33.cubes507.adj.simp1'
c writing 'p cnf 6160 468456' header
c closing file 'simp/33.cubes507.adj.simp1'
c after writing 202615850 bytes 193.2 MB
c wrote 468456 clauses in 1.40 seconds process time
c 
c --- [ writing extension ] --------------------------------------------------
c 
c writing extension stack to 'simp/33.cubes507.adj.ext1'
c opening file to write 'simp/33.cubes507.adj.ext1'
c closing file 'simp/33.cubes507.adj.ext1'
c after writing 11322 bytes 0.0 MB
c wrote 763 witnesses in 0.00 seconds process time
c 
c --- [ result ] -------------------------------------------------------------
c 
s SATISFIABLE
c 
c --- [ run-time profiling ] -------------------------------------------------
c 
c process time taken by individual solving procedures
c (percentage relative to process time for solving)
c 
c        19.63  100.00% search
c        16.92   86.18% parse
c        16.44   83.75% unstable
c         2.47   12.56% stable
c         0.72    3.69% lucky
c         0.00    0.00% simplify
c   =================================
c        19.63   51.73% solve
c 
c last line shows process time for solving
c (percentage relative to total process time)
c 
c --- [ statistics ] ---------------------------------------------------------
c 
c chronological:               538        36.93 %  of conflicts
c conflicts:                  1457        74.23    per second
c decisions:                 20231      1030.69    per second
c fixed:                       763        12.39 %  of all variables
c learned:                    1410        96.77 %  per conflict
c learned_lits:             203902       100.00 %  learned literals
c minimized:                     0         0.00 %  learned literals
c shrunken:                  96435        47.29 %  learned literals
c minishrunken:              22207        10.89 %  learned literals
c propagations:             287570         0.01 M  per second
c reduced:                      96         6.59 %  per conflict
c rephased:                      1      1457.00    interval
c restarts:                     81        17.99    interval
c stabilizing:                   1        31.30 %  of conflicts
c subsumed:                    163         0.01 %  of all clauses
c 
c seconds are measured in process time for solving
c 
c --- [ resources ] ----------------------------------------------------------
c 
c total process time since initialization:        37.94    seconds
c total real time since initialization:           38.11    seconds
c maximum resident set size of process:         1554.45    MB
c 
c --- [ shutting down ] ------------------------------------------------------
c 
c exit 10
WARNING! DIMACS header mismatch: wrong number of variables.
============================[ Problem Statistics ]=============================
|                                                                             |
|  Number of variables:          6120                                         |
|  Number of clauses:          468456                                         |
|  Parse time:                   2.90 s                                       |
|  Simplification time:          0.07 s                                       |
|                                                                             |
============================[ Search Statistics ]====================================================
| Conflicts |          ORIGINAL         |          LEARNT          | Num Sols |      SUBGRAPHS      |
|           |    Vars  Clauses Literals |    Limit  Clauses Lit/Cl |          | Canonical Noncanon. |
=====================================================================================================
|       125 |    6028   468481 44523707 |     2000      124     61 |        0 |        36        25 |
|       310 |    6026   468516 44524172 |     2000      307     53 |        0 |        56        60 |
|       583 |    6022   468564 44525753 |     2000      576     70 |        0 |        88       108 |
|      1000 |    6016   468644 44528435 |     2000      987     83 |        0 |       126       188 |
|      1534 |    6006   468672 44529022 |     2000     1511     87 |        0 |       159       216 |
|      2422 |    6004   468801 44531969 |     3588     1409     58 |        0 |       189       345 |
|      3648 |    6004   468888 44533774 |     3588     2635     73 |        0 |       235       432 |
|      5394 |    6004   468926 44534663 |     4996     2590     62 |        0 |       286       470 |
|      8078 |    6004   469048 44539222 |     6306     2784     50 |        0 |       347       592 |
|     12563 |    6004   469689 44556862 |     7560     4123     55 |        0 |       558      1233 |
|     18809 |    6004   470169 44566913 |     8781     6590     78 |        0 |       707      1713 |
|     28035 |    6004   470746 44578916 |    11203     6438     57 |        0 |       980      2290 |
|     41955 |    6004   471692 44604259 |    13613     8568     49 |        0 |      1416      3236 |
|     62310 |    6004   472586 44628633 |    16015    14725     60 |        0 |      1937      4130 |
|     93059 |    6004   474143 44671081 |    20820     9879     29 |        0 |      2823      5687 |
|    138341 |    6004   475636 44710005 |    24414    22155     62 |        0 |      3880      7180 |
|    208548 |    6004   480159 44811471 |    30411    25359     63 |        0 |      5605     11703 |
|    313475 |    6004   486560 44935290 |    37617    30092     64 |        0 |      9121     18104 |
|    480181 |    6004   505402 45237710 |    47218    29599     57 |        0 |     15233     37021 |
|    736988 |    6004   540526 45772789 |    58021    52409     66 |        0 |     28670     72145 |
|   1105752 |    6004   576765 46377688 |    71210    69162     75 |        0 |     48524    108384 |
|   1674051 |    6004   646276 47388495 |    88021    84472     72 |        0 |     76142    177895 |
|   2507138 |    6004   731181 48776209 |   108433    87971     70 |        0 |    112687    262800 |
|   3754009 |    6004   855778 50684512 |   133645    70654     36 |        0 |    169020    387397 |
|   5647469 |    6003  1065824 54014538 |   163639   114108     55 |        0 |    255867    597446 |
|   8352953 |    6003  1246192 56791008 |   199621   104574     32 |        0 |    371853    777814 |
|  12512375 |    5975  1309606 57657955 |   238587   166362     56 |        0 |    535735   1149561 |
=====================================================================================================
Number of solutions   : 0
Canonical subgraphs   : 602971         (24 /sec)
          order  3    : 1              (250000 /sec)
          order  4    : 1              (1000000 /sec)
          order  5    : 1              (200000 /sec)
          order  6    : 1              (50000 /sec)
          order  7    : 1              (7937 /sec)
          order  8    : 2              (1240 /sec)
          order  9    : 6              (288 /sec)
          order 10    : 25             (88 /sec)
          order 11    : 115            (29 /sec)
          order 12    : 603            (22 /sec)
          order 13    : 3668           (19 /sec)
          order 14    : 57987          (25 /sec)
          order 15    : 206939         (25 /sec)
          order 16    : 163865         (24 /sec)
          order 17    : 103442         (22 /sec)
          order 18    : 48124          (21 /sec)
          order 19    : 10050          (23 /sec)
          order 20    : 4323           (28 /sec)
          order 21    : 3817           (32 /sec)
          order 22    : 0              (-nan /sec)
Noncanonical subgraphs: 1379004        (200 /sec)
          order  3    : 0              (-nan /sec)
          order  4    : 0              (-nan /sec)
          order  5    : 0              (-nan /sec)
          order  6    : 0              (-nan /sec)
          order  7    : 0              (-nan /sec)
          order  8    : 0              (-nan /sec)
          order  9    : 0              (-nan /sec)
          order 10    : 0              (-nan /sec)
          order 11    : 0              (-nan /sec)
          order 12    : 0              (-nan /sec)
          order 13    : 8237           (7184 /sec)
          order 14    : 124901         (1193 /sec)
          order 15    : 1225012        (188 /sec)
          order 16    : 16214          (119 /sec)
          order 17    : 352            (377 /sec)
          order 18    : 130            (492 /sec)
          order 19    : 44             (1935 /sec)
          order 20    : 3              (1776 /sec)
          order 21    : 4              (4425 /sec)
Canonicity checking   : 25281.6 s
Noncanonicity checking: 6890.8 s
Total canonicity time : 32172.4 s
database reductions   : 213
restarts              : 20779
conflicts             : 14058665       (308 /sec)
decisions             : 18226112       (0.00 % random) (399 /sec)
propagations          : 1810974386     (39639 /sec)
conflict literals     : 1509791637     (53.69 % deleted)
actual reward         : 0.113756
Memory used           : 1049.00 MB
CPU time              : 45686.4 s

UNSATISFIABLE
